
  22   10
  10   10   10   10   10   10   10   10   10   10

   0   0   0   0   0   0   0   0   0   0   0   4 2 3 4 7 
   1   0   0   0   0  10   0   0   0   0   0   4 9 8 6 5 
   8   0   0  10   0   0   0   0   0   0   0   3 9 8 6 
   3   0   0  10   0   0   0   0   0   0   0   1 5 
   6   0   0   0   0   0  10   0   0   0   0   2 11 10 
   7   0   0  10   0   0   0   0   0   0   0   2 11 10 
   3   0   0   0   0   0   0   0  10   0   0   2 11 10 
   5   0   0  10   0   0   0   0   0   0   0   2 12 10 
   3   0   0   0   0   0   0  10   0   0   0   2 12 10 
   5   0   0   0   0   0  10   0   0   0   0   5 18 16 15 14 13 
  10   0   0   0   0   0   0  10   0   0   0   3 18 16 12 
   6   0   0   0   0   0   0   0   0   0  10   3 21 20 17 
   2   0   0   0   0  10   0   0   0   0   0   3 21 20 19 
   3   0   0   0   0   0  10   0   0   0   0   2 20 17 
   1   0   0   0  10   0   0   0   0   0   0   2 21 20 
  10   0   0   0   0   0   0  10   0   0   0   1 17 
   2   0   0   0   0   0   0  10   0   0   0   1 19 
   6   0   0   0   0   0  10   0   0   0   0   1 19 
  10   0   0   0   0   0   0   0   0   0  10   1 22
   3   0   0   0   0   0   0   0   0  10   0   1 22
   1   0   0   0   0  10   0   0   0   0   0   1 22
   0   0   0   0   0   0   0   0   0   0   0   0 
